p cnf 53 264
-12 -13 0
-12 -14 0
-12 -15 0
-12 -16 0
-12 -17 0
-12 -18 0
-13 -14 0
-13 -15 0
-13 -16 0
-13 -17 0
-13 -18 0
-14 -15 0 
-14 -16 0
-14 -17 0
-14 -18 0
-15 -16 0
-15 -17 0
-15 -18 0
-16 -17 0
-16 -18 0
-17 -18 0 
-19 -20 0
-19 -21 0
-19 -22 0
-19 -23 0
-19 -24 0
-19 -25 0
-20 -21 0
-20 -22 0
-20 -23 0
-20 -24 0
-20 -25 0
-21 -22 0
-21 -23 0
-21 -24 0
-21 -25 0
-22 -23 0
-22 -24 0
-22 -25 0
-23 -24 0
-23 -25 0
-24 -25 0
-26 -27 0
-26 -28 0
-26 -29 0
-26 -30 0
-26 -31 0
-26 -32 0
-27 -28 0
-27 -29 0
-27 -30 0
-27 -31 0
-27 -32 0
-28 -29 0
-28 -30 0
-28 -31 0
-28 -32 0
-29 -30 0
-29 -31 0
-29 -32 0
-30 -31 0
-30 -32 0
-31 -32 0
-33 -34 0
-33 -35 0
-33 -36 0
-33 -37 0
-33 -38 0
-33 -39 0
-34 -35 0
-34 -36 0
-34 -37 0
-34 -38 0
-34 -39 0
-35 -36 0
-35 -37 0
-35 -38 0
-35 -39 0
-36 -37 0
-36 -38 0
-36 -39 0
-37 -38 0
-37 -39 0
-38 -39 0
-40 -41 0
-40 -42 0
-40 -43 0
-40 -44 0
-40 -45 0
-40 -46 0
-41 -42 0
-41 -43 0
-41 -44 0
-41 -45 0
-41 -46 0
-42 -43 0
-42 -44 0
-42 -45 0
-42 -46 0
-43 -44 0
-43 -45 0
-43 -46 0
-44 -45 0
-44 -46 0
-45 -46 0
-47 -48 0
-47 -49 0
-47 -50 0
-47 -51 0
-47 -52 0
-47 -53 0
-48 -49 0
-48 -50 0
-48 -51 0
-48 -52 0
-48 -53 0
-49 -50 0
-49 -51 0
-49 -52 0
-49 -53 0
-50 -51 0
-50 -52 0
-50 -53 0
-51 -52 0
-51 -53 0
-52 -53 0
1 -12 26 0
1 -13 27 0
1 -14 28 0
1 -15 29 0
1 -16 30 0
1 -17 31 0
1 -18 32 0
-1 -19 33 0
-1 -20 34 0
-1 -21 35 0
-1 -22 36 0
-1 -23 37 0
-1 -24 38 0
-1 -25 39 0
5 -26 40 0
5 -27 41 0
5 -28 42 0
5 -29 43 0
5 -30 44 0
5 -31 45 0
5 -32 46 0
-5 -33 47 0
-5 -34 48 0
-5 -35 49 0
-5 -36 50 0
-5 -37 51 0
-5 -38 52 0
-5 -39 53 0
-1 -12 26 27 0
-1 -13 28 0
-1 -14 29 0
-1 -15 -3 30 0
-1 -15 3 31 0
-1 -16 -4 31 0
-1 -16 4 29 0
-1 -17 32 0
-1 -18 26 0 
1 -19 33 34 0
1 -20 35 0
1 -21 36 0
1 -22 -2 37 0
1 -22 2 38 0
1 -23 4 38 0
1 -23 -4 36 0
1 -24 39 0
1 -25 33 0
-5 -26 40 41 0
-5 -27 42 0 
-5 -28 43 0
-5 -29 -7 44 0
-5 -29 7 45 0
-5 -30 -8 45 0
-5 -30 8 43 0 
-5 -31 46 0
-5 -32 40 0
5 -33 47 48 0
5 -34 49 0
5 -35 50 0
5 -36 -6 51 0  
5 -36 6 52 0
5 -37 8 52 0
5 -37 -8 50 0
5 -38 53 0
5 -39 47 0
-1 -13 6 0
-1 -14 -8 0
-1 -18 -6 0
1 -20 7 0
1 -21 8 0
1 -25 -7 0
-5 -27 9 0
-5 -28 -11 0
-5 -32 -9 0
5 -34 10 0
5 -35 11 0
5 -39 -10 0
45 0
52 0
12 13 14 15 16 17 18 0
19 20 21 22 23 24 25 0
-12 -2 0
-13 -2 0
-14 2 0
-15 2 0
-16 2 0
-17 2 0
-18 2 0
-19 -3 0
-20 -3 0
-21 3 0
-22 3 0
-23 3 0
-24 3 0
-25 3 0
26 27 28 29 30 31 32 0
33 34 35 36 37 38 39 0
-26 -6 0
-27 -6 0
-28 6 0
-29 6 0
-30 6 0
-31 6 0
-32 6 0
-33 -7 0
-34 -7 0
-35 7 0
-36 7 0
-37 7 0
-38 7 0
-39 7 0
-2 -16 -24 -4 0
-2 -15 -24 3 0
2 -23 -17 4 0
2 -22 -17  3 0
5 -26 -38 -11 0
5 -27 -38 -11 0
5 -28 -38 11 0
5 -29 -38 11 0
5 -30 -38 11 0
-5 -33 -31 11 0
-5 -34 -31 11 0
-5 -35 -31 -11 0
-5 -36 -31 -11 0
-5 -37 -31 -11 0
-5 -30 -38 -8 0
-5 -29 -38 7 0
5 -37 -31 8 0
5 -36 -31 7 0
5 -26 -38 -11 0
5 -27 -38 -11 0
5 -28 -38 11 0
5 -29 -38 11 0
5 -30 -38 11 0
-5 -33 -31 11 0
-5 -34 -31 11 0
-5 -35 -31 -11 0
-5 -36 -31 -11 0
-5 -37 -31 -11 0


























